p edge 125 124 52
e 1 40
e 2 35
e 2 16
e 3 48
e 3 99
e 3 37
e 4 21
e 4 76
e 5 16
e 5 18
e 6 121
e 7 118
e 8 28
e 8 27
e 9 123
e 10 11
e 11 44
e 11 62
e 12 100
e 12 70
e 12 38
e 13 46
e 13 29
e 13 112
e 14 72
e 14 109
e 14 33
e 14 49
e 14 28
e 15 40
e 17 29
e 18 32
e 18 70
e 19 30
e 20 75
e 22 90
e 22 97
e 23 35
e 24 77
e 24 80
e 25 39
e 25 32
e 26 59
e 26 56
e 26 65
e 26 119
e 26 122
e 26 67
e 27 45
e 27 107
e 27 70
e 29 61
e 29 37
e 29 114
e 30 41
e 31 54
e 31 118
e 31 39
e 33 121
e 34 93
e 34 82
e 34 79
e 36 43
e 36 55
e 36 72
e 38 73
e 40 121
e 41 51
e 41 67
e 41 57
e 42 111
e 46 94
e 47 84
e 49 124
e 50 51
e 51 86
e 51 120
e 52 96
e 52 79
e 53 80
e 54 74
e 54 115
e 56 89
e 57 107
e 58 76
e 60 93
e 62 98
e 62 106
e 63 111
e 63 97
e 63 119
e 64 66
e 64 90
e 65 95
e 66 110
e 67 91
e 68 95
e 69 94
e 71 81
e 71 111
e 73 80
e 73 82
e 75 84
e 75 114
e 76 90
e 78 85
e 78 88
e 78 92
e 78 84
e 79 102
e 79 125
e 81 103
e 83 96
e 87 116
e 92 116
e 97 106
e 99 113
e 101 105
e 102 104
e 105 108
e 105 123
e 110 117
e 112 123
e 118 123
